<?xml version="1.0" encoding="UTF-8"?><osil xmlns="os.optimizationservices.org"   xmlns:xsi="http://www.w3.org/2001/XMLSchema-instance" xsi:schemaLocation="os.optimizationservices.org http://www.optimizationservices.org/schemas/2.0/OSiL.xsd" ><instanceHeader><name>q_20_0_50_1</name></instanceHeader><instanceData><variables numberOfVariables="20"><var name="x1" ub="1"/><var name="x2" ub="1"/><var name="x3" ub="1"/><var name="x4" ub="1"/><var name="x5" ub="1"/><var name="x6" ub="1"/><var name="x7" ub="1"/><var name="x8" ub="1"/><var name="x9" ub="1"/><var name="x10" ub="1"/><var name="x11" ub="1"/><var name="x12" ub="1"/><var name="x13" ub="1"/><var name="x14" ub="1"/><var name="x15" ub="1"/><var name="x16" ub="1"/><var name="x17" ub="1"/><var name="x18" ub="1"/><var name="x19" ub="1"/><var name="x20" ub="1"/></variables><objectives numberOfObjectives="1"><obj maxOrMin="min" name="defObj_x21" numberOfObjCoef="20"><coef idx="0">.152</coef><coef idx="1">.5178</coef><coef idx="2">-.1747</coef><coef idx="3">.9976</coef><coef idx="4">.1196</coef><coef idx="5">-.5697</coef><coef idx="6">-.8498</coef><coef idx="7">-.6921</coef><coef idx="8">-8.32e-2</coef><coef idx="9">.7875</coef><coef idx="10">.2374</coef><coef idx="11">.2773</coef><coef idx="12">.8304</coef><coef idx="13">-.2771</coef><coef idx="14">.8288</coef><coef idx="15">-.6953</coef><coef idx="16">.9491</coef><coef idx="17">-.1701</coef><coef idx="18">.4837</coef><coef idx="19">-.9392</coef></obj></objectives><quadraticCoefficients  numberOfQuadraticTerms="105" ><qTerm  idx="-1"  idxOne="0"  idxTwo="2"  coef="-.9541"/><qTerm  idx="-1"  idxOne="0"  idxTwo="6"  coef="-.6608"/><qTerm  idx="-1"  idxOne="0"  idxTwo="8"  coef="-1.0332"/><qTerm  idx="-1"  idxOne="0"  idxTwo="9"  coef="-1.0729"/><qTerm  idx="-1"  idxOne="0"  idxTwo="11"  coef="-.8953"/><qTerm  idx="-1"  idxOne="0"  idxTwo="13"  coef="-1.2742"/><qTerm  idx="-1"  idxOne="0"  idxTwo="18"  coef="-4.55e-2"/><qTerm  idx="-1"  idxOne="1"  idxTwo="1"  coef="1.3248"/><qTerm  idx="-1"  idxOne="1"  idxTwo="2"  coef="-1.0082"/><qTerm  idx="-1"  idxOne="1"  idxTwo="3"  coef=".9667"/><qTerm  idx="-1"  idxOne="1"  idxTwo="4"  coef="-1.9686"/><qTerm  idx="-1"  idxOne="1"  idxTwo="5"  coef="-1.6924"/><qTerm  idx="-1"  idxOne="1"  idxTwo="7"  coef="-.964"/><qTerm  idx="-1"  idxOne="1"  idxTwo="9"  coef="-1.0601"/><qTerm  idx="-1"  idxOne="1"  idxTwo="10"  coef="1.963"/><qTerm  idx="-1"  idxOne="1"  idxTwo="11"  coef="-8.84e-2"/><qTerm  idx="-1"  idxOne="1"  idxTwo="12"  coef="-1.3081"/><qTerm  idx="-1"  idxOne="1"  idxTwo="18"  coef="1.4121"/><qTerm  idx="-1"  idxOne="2"  idxTwo="3"  coef="1.4488"/><qTerm  idx="-1"  idxOne="2"  idxTwo="4"  coef="1.3342"/><qTerm  idx="-1"  idxOne="2"  idxTwo="5"  coef="-.1184"/><qTerm  idx="-1"  idxOne="2"  idxTwo="7"  coef=".6076"/><qTerm  idx="-1"  idxOne="2"  idxTwo="8"  coef="-1.8084"/><qTerm  idx="-1"  idxOne="2"  idxTwo="9"  coef="-1.358"/><qTerm  idx="-1"  idxOne="2"  idxTwo="10"  coef="1.379"/><qTerm  idx="-1"  idxOne="2"  idxTwo="11"  coef="-1.0454"/><qTerm  idx="-1"  idxOne="2"  idxTwo="16"  coef="-1.493"/><qTerm  idx="-1"  idxOne="2"  idxTwo="18"  coef=".5878"/><qTerm  idx="-1"  idxOne="2"  idxTwo="19"  coef="1.8439"/><qTerm  idx="-1"  idxOne="3"  idxTwo="4"  coef="-1.3916"/><qTerm  idx="-1"  idxOne="3"  idxTwo="6"  coef="-1.9329"/><qTerm  idx="-1"  idxOne="3"  idxTwo="7"  coef="-.6834"/><qTerm  idx="-1"  idxOne="3"  idxTwo="9"  coef="1.2276"/><qTerm  idx="-1"  idxOne="3"  idxTwo="12"  coef="-.4492"/><qTerm  idx="-1"  idxOne="3"  idxTwo="15"  coef="-1.1762"/><qTerm  idx="-1"  idxOne="3"  idxTwo="16"  coef="1.6824"/><qTerm  idx="-1"  idxOne="3"  idxTwo="17"  coef="-.1736"/><qTerm  idx="-1"  idxOne="3"  idxTwo="18"  coef="-.6546"/><qTerm  idx="-1"  idxOne="3"  idxTwo="19"  coef="-1.5013"/><qTerm  idx="-1"  idxOne="4"  idxTwo="5"  coef="-.9568"/><qTerm  idx="-1"  idxOne="4"  idxTwo="6"  coef="-.4681"/><qTerm  idx="-1"  idxOne="4"  idxTwo="8"  coef=".5104"/><qTerm  idx="-1"  idxOne="4"  idxTwo="9"  coef="-.5831"/><qTerm  idx="-1"  idxOne="4"  idxTwo="12"  coef="1.2129"/><qTerm  idx="-1"  idxOne="4"  idxTwo="14"  coef="-.7606"/><qTerm  idx="-1"  idxOne="4"  idxTwo="15"  coef="1.9358"/><qTerm  idx="-1"  idxOne="4"  idxTwo="17"  coef=".3952"/><qTerm  idx="-1"  idxOne="4"  idxTwo="18"  coef=".8765"/><qTerm  idx="-1"  idxOne="5"  idxTwo="8"  coef="-1.7513"/><qTerm  idx="-1"  idxOne="5"  idxTwo="9"  coef=".8603"/><qTerm  idx="-1"  idxOne="5"  idxTwo="12"  coef=".1955"/><qTerm  idx="-1"  idxOne="5"  idxTwo="13"  coef=".3559"/><qTerm  idx="-1"  idxOne="5"  idxTwo="14"  coef=".2452"/><qTerm  idx="-1"  idxOne="5"  idxTwo="15"  coef="-1.6835"/><qTerm  idx="-1"  idxOne="5"  idxTwo="16"  coef="-1.8846"/><qTerm  idx="-1"  idxOne="5"  idxTwo="17"  coef="-1.7464"/><qTerm  idx="-1"  idxOne="5"  idxTwo="19"  coef="-1.0181"/><qTerm  idx="-1"  idxOne="6"  idxTwo="11"  coef="1.9663"/><qTerm  idx="-1"  idxOne="6"  idxTwo="15"  coef=".3176"/><qTerm  idx="-1"  idxOne="6"  idxTwo="17"  coef="1.1265"/><qTerm  idx="-1"  idxOne="6"  idxTwo="19"  coef="-1.6114"/><qTerm  idx="-1"  idxOne="7"  idxTwo="8"  coef="-1.2054"/><qTerm  idx="-1"  idxOne="7"  idxTwo="10"  coef="1.573"/><qTerm  idx="-1"  idxOne="7"  idxTwo="15"  coef="-7.5e-3"/><qTerm  idx="-1"  idxOne="7"  idxTwo="17"  coef="-1.1509"/><qTerm  idx="-1"  idxOne="8"  idxTwo="8"  coef="-1.765"/><qTerm  idx="-1"  idxOne="8"  idxTwo="9"  coef="1.2164"/><qTerm  idx="-1"  idxOne="8"  idxTwo="12"  coef=".2479"/><qTerm  idx="-1"  idxOne="8"  idxTwo="13"  coef="-.9838"/><qTerm  idx="-1"  idxOne="8"  idxTwo="14"  coef=".8334"/><qTerm  idx="-1"  idxOne="8"  idxTwo="17"  coef="1.745"/><qTerm  idx="-1"  idxOne="9"  idxTwo="9"  coef="-1.6941"/><qTerm  idx="-1"  idxOne="9"  idxTwo="10"  coef="1.65e-2"/><qTerm  idx="-1"  idxOne="9"  idxTwo="11"  coef=".4257"/><qTerm  idx="-1"  idxOne="9"  idxTwo="12"  coef=".732"/><qTerm  idx="-1"  idxOne="9"  idxTwo="13"  coef="-1.2741"/><qTerm  idx="-1"  idxOne="9"  idxTwo="17"  coef=".5944"/><qTerm  idx="-1"  idxOne="10"  idxTwo="10"  coef="-1.8758"/><qTerm  idx="-1"  idxOne="10"  idxTwo="11"  coef=".824"/><qTerm  idx="-1"  idxOne="10"  idxTwo="17"  coef="-1.6616"/><qTerm  idx="-1"  idxOne="10"  idxTwo="18"  coef="-.4612"/><qTerm  idx="-1"  idxOne="11"  idxTwo="12"  coef=".9552"/><qTerm  idx="-1"  idxOne="11"  idxTwo="15"  coef=".8771"/><qTerm  idx="-1"  idxOne="11"  idxTwo="16"  coef="-1.662"/><qTerm  idx="-1"  idxOne="11"  idxTwo="18"  coef="1.8705"/><qTerm  idx="-1"  idxOne="12"  idxTwo="13"  coef="-.2172"/><qTerm  idx="-1"  idxOne="12"  idxTwo="14"  coef="1.5424"/><qTerm  idx="-1"  idxOne="12"  idxTwo="17"  coef="-.1191"/><qTerm  idx="-1"  idxOne="13"  idxTwo="14"  coef="1.451"/><qTerm  idx="-1"  idxOne="13"  idxTwo="15"  coef="-1.9786"/><qTerm  idx="-1"  idxOne="13"  idxTwo="16"  coef="1.2044"/><qTerm  idx="-1"  idxOne="13"  idxTwo="17"  coef="-.3494"/><qTerm  idx="-1"  idxOne="13"  idxTwo="18"  coef=".4975"/><qTerm  idx="-1"  idxOne="14"  idxTwo="14"  coef="7.34e-2"/><qTerm  idx="-1"  idxOne="14"  idxTwo="15"  coef="1.9721"/><qTerm  idx="-1"  idxOne="14"  idxTwo="16"  coef="-1.3037"/><qTerm  idx="-1"  idxOne="14"  idxTwo="18"  coef="1.5142"/><qTerm  idx="-1"  idxOne="15"  idxTwo="15"  coef="-.4632"/><qTerm  idx="-1"  idxOne="15"  idxTwo="16"  coef="-1.7747"/><qTerm  idx="-1"  idxOne="15"  idxTwo="17"  coef="1.5207"/><qTerm  idx="-1"  idxOne="16"  idxTwo="16"  coef="-.7944"/><qTerm  idx="-1"  idxOne="16"  idxTwo="17"  coef="6.16e-2"/><qTerm  idx="-1"  idxOne="16"  idxTwo="18"  coef="-.4891"/><qTerm  idx="-1"  idxOne="17"  idxTwo="18"  coef=".2259"/><qTerm  idx="-1"  idxOne="18"  idxTwo="19"  coef=".764"/></quadraticCoefficients></instanceData></osil>
